\ENCODING=ISO-8859-1
\Problem name: kMIS

Maximize
 obj: x1 + x2 + x3 + x4 + x5
Subject To
 c1:  x6 + x7 + x8 + x9 + x10  = 2
 c2:  x2 + x6 <= 1
 c3:  x5 + x6 <= 1
 c4:  x1 + x7 <= 1
 c5:  x2 + x7 <= 1
 c6:  x2 + x8 <= 1
 c7:  x3 + x8 <= 1
 c8:  x5 + x8 <= 1
 c9:  x1 + x9 <= 1
 c10: x2 + x9 <= 1
 c11: x3 + x9 <= 1
 c12: x4 + x9 <= 1
 c13: x2 + x10 <= 1
Bounds
 0 <= x1 <= 1
 0 <= x2 <= 1
 0 <= x3 <= 1
 0 <= x4 <= 1
 0 <= x5 <= 1
 0 <= x6 <= 1
 0 <= x7 <= 1
 0 <= x8 <= 1
 0 <= x9 <= 1
 0 <= x10 <= 1
Binaries
 x1  x2  x3  x4  x5  x6  x7  x8  x9  x10 
End
